(set-info :smt-lib-version 2.6)
(set-logic UFNIA)
(set-info :source |
Generated by: Geoff Sutcliffe
Generated on: 2026-03-11
Generator: TPTPWorld
Application: Benchmarking automated theorem provers
Time limit: 120.0

These benchmarks are translations from the TPTP Library (Thousands of
Problems for Theorem Provers), see http://www.cs.miami.edu/~tptp/

The TPTP is maintained by Geoff Sutcliffe, and he contributed this
selection of benchmarks to SMT-LIB.  They were exported from the
v9.2.1 realease of TPTP.
|)
(set-info :category "industrial")
(set-info :status unknown)
; SZS status Success
(declare-sort $$unsorted 0)
(declare-sort tptp.uni 0)
(declare-sort tptp.ty 0)
(declare-fun tptp.sort1 (tptp.ty tptp.uni) Bool)
(declare-fun tptp.witness1 (tptp.ty) tptp.uni)
(assert (forall ((A tptp.ty)) (tptp.sort1 A (tptp.witness1 A))))
(declare-fun tptp.int () tptp.ty)
(declare-fun tptp.real () tptp.ty)
(declare-sort tptp.bool1 0)
(declare-fun tptp.bool () tptp.ty)
(declare-fun tptp.true1 () tptp.bool1)
(declare-fun tptp.false1 () tptp.bool1)
(declare-fun tptp.match_bool1 (tptp.ty tptp.bool1 tptp.uni tptp.uni) tptp.uni)
(assert (forall ((A tptp.ty) (X tptp.bool1) (X1 tptp.uni) (X2 tptp.uni)) (tptp.sort1 A (tptp.match_bool1 A X X1 X2))))
(assert (forall ((A tptp.ty) (Z tptp.uni) (Z1 tptp.uni)) (=> (tptp.sort1 A Z) (= (tptp.match_bool1 A tptp.true1 Z Z1) Z))))
(assert (forall ((A tptp.ty) (Z tptp.uni) (Z1 tptp.uni)) (=> (tptp.sort1 A Z1) (= (tptp.match_bool1 A tptp.false1 Z Z1) Z1))))
(assert (not (= tptp.true1 tptp.false1)))
(assert (forall ((U tptp.bool1)) (or (= U tptp.true1) (= U tptp.false1))))
(declare-sort tptp.tuple02 0)
(declare-fun tptp.tuple0 () tptp.ty)
(declare-fun tptp.tuple03 () tptp.tuple02)
(assert (forall ((U tptp.tuple02)) (= U tptp.tuple03)))
(declare-fun tptp.qtmark () tptp.ty)
(assert (forall ((X Int) (Y Int) (Z Int)) (=> (<= X Y) (=> (<= 0 Z) (<= (* X Z) (* Y Z))))))
(declare-fun tptp.abs1 (Int) Int)
(assert (forall ((X Int)) (let ((_let_1 (tptp.abs1 X))) (let ((_let_2 (<= 0 X))) (and (=> _let_2 (= _let_1 X)) (=> (not _let_2) (= _let_1 (- X))))))))
(assert (forall ((X Int) (Y Int)) (= (<= (tptp.abs1 X) Y) (and (<= (- Y) X) (<= X Y)))))
(assert (forall ((X Int)) (<= 0 (tptp.abs1 X))))
(declare-fun tptp.div1 (Int Int) Int)
(declare-fun tptp.mod1 (Int Int) Int)
(assert (forall ((X Int) (Y Int)) (=> (not (= Y 0)) (= X (+ (* Y (tptp.div1 X Y)) (tptp.mod1 X Y))))))
(assert (forall ((X Int) (Y Int)) (let ((_let_1 (tptp.div1 X Y))) (=> (and (<= 0 X) (< 0 Y)) (and (<= 0 _let_1) (<= _let_1 X))))))
(assert (forall ((X Int) (Y Int)) (let ((_let_1 (tptp.abs1 Y))) (let ((_let_2 (tptp.mod1 X Y))) (=> (not (= Y 0)) (and (< (- _let_1) _let_2) (< _let_2 _let_1)))))))
(assert (forall ((X Int) (Y Int)) (=> (and (<= 0 X) (< 0 Y)) (<= 0 (tptp.div1 X Y)))))
(assert (forall ((X Int) (Y Int)) (=> (and (<= X 0) (< 0 Y)) (<= (tptp.div1 X Y) 0))))
(assert (forall ((X Int) (Y Int)) (=> (and (<= 0 X) (not (= Y 0))) (<= 0 (tptp.mod1 X Y)))))
(assert (forall ((X Int) (Y Int)) (=> (and (<= X 0) (not (= Y 0))) (<= (tptp.mod1 X Y) 0))))
(assert (forall ((X Int) (Y Int)) (=> (not (= Y 0)) (<= (tptp.abs1 (* (tptp.div1 X Y) Y)) (tptp.abs1 X)))))
(assert (forall ((X Int)) (= (tptp.div1 X 1) X)))
(assert (forall ((X Int)) (= (tptp.mod1 X 1) 0)))
(assert (forall ((X Int) (Y Int)) (=> (and (<= 0 X) (< X Y)) (= (tptp.div1 X Y) 0))))
(assert (forall ((X Int) (Y Int)) (=> (and (<= 0 X) (< X Y)) (= (tptp.mod1 X Y) X))))
(assert (forall ((X Int) (Y Int) (Z Int)) (=> (and (< 0 X) (<= 0 Y) (<= 0 Z)) (= (tptp.div1 (+ (* X Y) Z) X) (+ Y (tptp.div1 Z X))))))
(assert (forall ((X Int) (Y Int) (Z Int)) (=> (and (< 0 X) (<= 0 Y) (<= 0 Z)) (= (tptp.mod1 (+ (* X Y) Z) X) (tptp.mod1 Z X)))))
(declare-fun tptp.power1 (Int Int) Int)
(assert (forall ((X Int)) (= (tptp.power1 X 0) 1)))
(assert (forall ((X Int) (N Int)) (=> (<= 0 N) (= (tptp.power1 X (+ N 1)) (* X (tptp.power1 X N))))))
(assert (forall ((X Int) (N Int)) (=> (< 0 N) (= (tptp.power1 X N) (* X (tptp.power1 X (- N 1)))))))
(assert (forall ((X Int)) (= (tptp.power1 X 1) X)))
(assert (forall ((X Int) (N Int) (M Int)) (=> (<= 0 N) (=> (<= 0 M) (= (tptp.power1 X (+ N M)) (* (tptp.power1 X N) (tptp.power1 X M)))))))
(assert (forall ((X Int) (N Int) (M Int)) (=> (<= 0 N) (=> (<= 0 M) (= (tptp.power1 X (* N M)) (tptp.power1 (tptp.power1 X N) M))))))
(assert (forall ((X Int) (Y Int) (N Int)) (=> (<= 0 N) (= (tptp.power1 (* X Y) N) (* (tptp.power1 X N) (tptp.power1 Y N))))))
(declare-fun tptp.map (tptp.ty tptp.ty) tptp.ty)
(declare-fun tptp.get (tptp.ty tptp.ty tptp.uni tptp.uni) tptp.uni)
(assert (forall ((A tptp.ty) (B tptp.ty) (X tptp.uni) (X1 tptp.uni)) (tptp.sort1 B (tptp.get B A X X1))))
(declare-fun tptp.set (tptp.ty tptp.ty tptp.uni tptp.uni tptp.uni) tptp.uni)
(assert (forall ((A tptp.ty) (B tptp.ty) (X tptp.uni) (X1 tptp.uni) (X2 tptp.uni)) (tptp.sort1 (tptp.map A B) (tptp.set B A X X1 X2))))
(assert (forall ((A tptp.ty) (B tptp.ty) (M tptp.uni) (A1 tptp.uni) (A2 tptp.uni) (B1 tptp.uni)) (=> (tptp.sort1 B B1) (=> (= A1 A2) (= (tptp.get B A (tptp.set B A M A1 B1) A2) B1)))))
(assert (forall ((A tptp.ty) (B tptp.ty) (M tptp.uni) (A1 tptp.uni) (A2 tptp.uni)) (=> (tptp.sort1 A A1) (=> (tptp.sort1 A A2) (forall ((B1 tptp.uni)) (=> (not (= A1 A2)) (= (tptp.get B A (tptp.set B A M A1 B1) A2) (tptp.get B A M A2))))))))
(declare-fun tptp.const (tptp.ty tptp.ty tptp.uni) tptp.uni)
(assert (forall ((A tptp.ty) (B tptp.ty) (X tptp.uni)) (tptp.sort1 (tptp.map A B) (tptp.const B A X))))
(assert (forall ((A tptp.ty) (B tptp.ty) (B1 tptp.uni) (A1 tptp.uni)) (=> (tptp.sort1 B B1) (= (tptp.get B A (tptp.const B A B1) A1) B1))))
(declare-fun tptp.array (tptp.ty) tptp.ty)
(declare-fun tptp.mk_array1 (tptp.ty Int tptp.uni) tptp.uni)
(assert (forall ((A tptp.ty) (X Int) (X1 tptp.uni)) (tptp.sort1 (tptp.array A) (tptp.mk_array1 A X X1))))
(declare-fun tptp.length1 (tptp.ty tptp.uni) Int)
(assert (forall ((A tptp.ty) (U Int) (U1 tptp.uni)) (= (tptp.length1 A (tptp.mk_array1 A U U1)) U)))
(declare-fun tptp.elts (tptp.ty tptp.uni) tptp.uni)
(assert (forall ((A tptp.ty) (X tptp.uni)) (tptp.sort1 (tptp.map tptp.int A) (tptp.elts A X))))
(assert (forall ((A tptp.ty) (U Int) (U1 tptp.uni)) (=> (tptp.sort1 (tptp.map tptp.int A) U1) (= (tptp.elts A (tptp.mk_array1 A U U1)) U1))))
(assert (forall ((A tptp.ty) (U tptp.uni)) (= U (tptp.mk_array1 A (tptp.length1 A U) (tptp.elts A U)))))
(declare-fun tptp.get2 (tptp.ty tptp.uni Int) tptp.uni)
(assert (forall ((A tptp.ty) (X tptp.uni) (X1 Int)) (tptp.sort1 A (tptp.get2 A X X1))))
(declare-fun tptp.t2tb (Int) tptp.uni)
(assert (forall ((X Int)) (tptp.sort1 tptp.int (tptp.t2tb X))))
(declare-fun tptp.tb2t (tptp.uni) Int)
(assert (forall ((I Int)) (= (tptp.tb2t (tptp.t2tb I)) I)))
(assert (forall ((J tptp.uni)) (= (tptp.t2tb (tptp.tb2t J)) J)))
(assert (forall ((A tptp.ty) (A1 tptp.uni) (I Int)) (= (tptp.get2 A A1 I) (tptp.get A tptp.int (tptp.elts A A1) (tptp.t2tb I)))))
(declare-fun tptp.set2 (tptp.ty tptp.uni Int tptp.uni) tptp.uni)
(assert (forall ((A tptp.ty) (X tptp.uni) (X1 Int) (X2 tptp.uni)) (tptp.sort1 (tptp.array A) (tptp.set2 A X X1 X2))))
(assert (forall ((A tptp.ty) (A1 tptp.uni) (I Int) (V tptp.uni)) (= (tptp.set2 A A1 I V) (tptp.mk_array1 A (tptp.length1 A A1) (tptp.set A tptp.int (tptp.elts A A1) (tptp.t2tb I) V)))))
(declare-fun tptp.make1 (tptp.ty Int tptp.uni) tptp.uni)
(assert (forall ((A tptp.ty) (X Int) (X1 tptp.uni)) (tptp.sort1 (tptp.array A) (tptp.make1 A X X1))))
(assert (forall ((A tptp.ty) (N Int) (V tptp.uni)) (= (tptp.make1 A N V) (tptp.mk_array1 A N (tptp.const A tptp.int V)))))
(declare-sort tptp.map_int_int 0)
(declare-fun tptp.sum2 (tptp.map_int_int Int Int) Int)
(assert (forall ((C tptp.map_int_int) (I Int) (J Int)) (=> (<= J I) (= (tptp.sum2 C I J) 0))))
(declare-fun tptp.t2tb1 (tptp.map_int_int) tptp.uni)
(assert (forall ((X tptp.map_int_int)) (tptp.sort1 (tptp.map tptp.int tptp.int) (tptp.t2tb1 X))))
(declare-fun tptp.tb2t1 (tptp.uni) tptp.map_int_int)
(assert (forall ((I tptp.map_int_int)) (= (tptp.tb2t1 (tptp.t2tb1 I)) I)))
(assert (forall ((J tptp.uni)) (= (tptp.t2tb1 (tptp.tb2t1 J)) J)))
(assert (forall ((C tptp.map_int_int) (I Int) (J Int)) (=> (< I J) (= (tptp.sum2 C I J) (+ (tptp.tb2t (tptp.get tptp.int tptp.int (tptp.t2tb1 C) (tptp.t2tb I))) (tptp.sum2 C (+ I 1) J))))))
(assert (forall ((C tptp.map_int_int) (I Int) (J Int)) (let ((_let_1 (- J 1))) (=> (< I J) (= (tptp.sum2 C I J) (+ (tptp.sum2 C I _let_1) (tptp.tb2t (tptp.get tptp.int tptp.int (tptp.t2tb1 C) (tptp.t2tb _let_1)))))))))
(assert (forall ((C tptp.map_int_int) (I Int) (K Int) (J Int)) (=> (and (<= I K) (<= K J)) (= (tptp.sum2 C I J) (+ (tptp.sum2 C I K) (tptp.sum2 C K J))))))
(assert (forall ((C1 tptp.map_int_int) (C2 tptp.map_int_int) (I Int) (J Int)) (=> (forall ((K Int)) (let ((_let_1 (tptp.t2tb K))) (=> (and (<= I K) (< K J)) (= (tptp.tb2t (tptp.get tptp.int tptp.int (tptp.t2tb1 C1) _let_1)) (tptp.tb2t (tptp.get tptp.int tptp.int (tptp.t2tb1 C2) _let_1)))))) (= (tptp.sum2 C1 I J) (tptp.sum2 C2 I J)))))
(declare-sort tptp.array_int 0)
(declare-fun tptp.sum3 (tptp.array_int Int Int) Int)
(declare-fun tptp.t2tb2 (tptp.array_int) tptp.uni)
(assert (forall ((X tptp.array_int)) (tptp.sort1 (tptp.array tptp.int) (tptp.t2tb2 X))))
(declare-fun tptp.tb2t2 (tptp.uni) tptp.array_int)
(assert (forall ((I tptp.array_int)) (= (tptp.tb2t2 (tptp.t2tb2 I)) I)))
(assert (forall ((J tptp.uni)) (= (tptp.t2tb2 (tptp.tb2t2 J)) J)))
(assert (forall ((A tptp.array_int) (L Int) (H Int)) (= (tptp.sum3 A L H) (tptp.sum2 (tptp.tb2t1 (tptp.elts tptp.int (tptp.t2tb2 A))) L H))))
(assert (forall ((X Int)) (let ((_let_1 (* 2 (tptp.div1 X 2)))) (=> (<= 0 X) (and (<= _let_1 X) (<= (- X 1) _let_1))))))
(declare-fun tptp.is_power_of_21 (Int) Bool)
(assert (forall ((X Int)) (= (tptp.is_power_of_21 X) (exists ((K Int)) (and (<= 0 K) (= X (tptp.power1 2 K)))))))
(assert (not (forall ((X Int)) (=> (tptp.is_power_of_21 X) (=> (< 1 X) (= (* 2 (tptp.div1 X 2)) X))))))
(check-sat)
(exit)
